c SAT Generator for power-law distributed variable frequencies
c -g u -v 20 -c 91 -k 3 -p 2.750000 -b 3.200000 -f /home/schmidt/Devel/ni-kop-sat/data/ensemble/ruf20-91/ruf20-91-18 -u 1 -U 1 -s 1874628537
p cnf 20 91
-8 -13 -16 0
-6 -8 -20 0
-8 -16 -20 0
12 -16 19 0
8 16 18 0
9 15 -16 0
1 13 -16 0
5 7 -9 0
-6 8 15 0
-8 10 16 0
-6 -13 -20 0
-6 -10 -14 0
-5 -16 18 0
-7 15 16 0
-7 13 -16 0
3 10 11 0
3 -10 16 0
1 7 20 0
5 11 -14 0
12 14 -20 0
-1 2 -17 0
2 -3 15 0
-9 14 17 0
8 -11 19 0
-2 -13 20 0
-7 -10 -18 0
14 16 -18 0
4 -9 -18 0
-3 6 -8 0
4 -7 17 0
4 11 -18 0
-2 -9 12 0
1 9 13 0
-3 -4 -13 0
2 15 18 0
3 13 -19 0
2 17 19 0
4 -11 12 0
8 9 -17 0
-8 9 -10 0
5 17 18 0
5 10 16 0
2 17 20 0
6 -8 -19 0
6 -11 -13 0
-1 -9 -19 0
3 12 19 0
15 19 -20 0
16 19 -20 0
-9 12 15 0
-4 -12 13 0
1 5 -11 0
-10 11 -20 0
-6 11 -14 0
2 5 16 0
5 8 16 0
3 11 14 0
3 -8 20 0
-10 -11 12 0
-3 11 17 0
-2 14 17 0
-2 5 18 0
1 -7 -17 0
1 -3 4 0
-4 10 13 0
5 16 -20 0
-1 -5 -17 0
-8 11 15 0
2 6 20 0
-1 -13 -14 0
1 3 4 0
2 4 -17 0
2 4 20 0
-6 -19 20 0
-5 -8 -15 0
-8 -11 15 0
1 5 -19 0
-6 -14 15 0
-3 -14 15 0
6 -8 -18 0
7 -10 -19 0
-4 -5 -6 0
-1 12 -17 0
3 -14 20 0
1 12 -13 0
6 -16 -17 0
-7 -8 -9 0
4 9 16 0
5 9 11 0
3 -8 13 0
1 -3 18 0
